
&control
  calculation='scf',
  prefix='Mg',
  tstress = .true.,
  tprnfor = .true.,
  outdir='./out_Mg',
  pseudo_dir='/home/lorenzo/pseudos/Mg',
/
&system
  ibrav=4, !Hexagonal
  celldm(1)=6.07,
  nat=1, 
  ntyp=1,
  ecutwfc=10,
  occupations='smearing', 
  smearing='gaussian',  
  degauss=0.01,    
/
&electrons
  diagonalization='david',
  conv_thr=1.0d-8,
/
ATOMIC_SPECIES
  Mg  24.305  Mg.pbe-spnl-rrkjus_psl.1.0.0.UPF
ATOMIC_POSITIONS {angstrom}
  Mg 0.00 0.00 0.00 
K_POINTS {automatic}
  3 3 3 0 0 0
