
&control
  calculation='scf',
  prefix='Al',
  tstress = .true.,
  tprnfor = .true.,
  outdir='./out_Al',
  pseudo_dir='/home/lorenzo/pseudos/Al',
/
&system
  ibrav=2,
  celldm(1)=7.65,
  nat=1, 
  ntyp=1,
  ecutwfc=75,
  occupations='smearing', 
  smearing='gaussian',  
  degauss=0.01,    
/
&electrons
  diagonalization='david',
  conv_thr=1.0d-8,
/
ATOMIC_SPECIES
  Al  26.9815  Al.pbe-nl-rrkjus_psl.1.0.0.UPF
ATOMIC_POSITIONS {angstrom}
  Al 0.00 0.00 0.00 
K_POINTS {automatic}
  8 8 8 0 0 0
