
&control
  calculation='scf',
  prefix='Cu',
  tstress = .true.,
  tprnfor = .true.,
  outdir='./out_Cu',
  pseudo_dir='/home/lorenzo/pseudos/Cu',
/
&system
  ibrav=2,
  celldm(1)= 6.83,
  nat=1, 
  ntyp=1,
  ecutwfc=50,
  occupations='smearing', 
  smearing='gaussian',  
  degauss=0.01,    
/
&electrons
  diagonalization='david',
  conv_thr=1.0d-8,
/
ATOMIC_SPECIES
  Cu  63.546  Cu.pbe-dn-rrkjus_psl.1.0.0.UPF
ATOMIC_POSITIONS {angstrom}
  Cu 0.00 0.00 0.00 
K_POINTS {automatic}
  1 1 1 0 0 0
