
&control
  calculation='scf',
  prefix='Si',
  tstress = .true.,
  tprnfor = .true.,
  outdir='./out_Si',
  pseudo_dir='/q-w-qe-6.3/pseudo',
/
&system
  ibrav=2,
  A = 3.6,
  nat=2, 
  ntyp=1,
  ecutwfc=10,
/
&electrons
  diagonalization='david',
  conv_thr=1.0d-7,
/
ATOMIC_SPECIES
  Si  28.085  Si.bhs.UPF
ATOMIC_POSITIONS {crystal}
  Si 0.00 0.00 0.00 
  Si 0.25 0.25 0.25
K_POINTS {automatic}
  6 6 6 0 0 0
