
&control
  calculation='scf',
  prefix='Ni',
  tstress = .true.,
  tprnfor = .true.,
  outdir='./out_Ni',
  pseudo_dir='/home/lorenzo/pseudos/Ni',
/
&system
  ibrav=2,
  celldm(1)=6.65,
  nat=1, 
  ntyp=1,
  ecutwfc=25,
  occupations='smearing', 
  smearing='gaussian',  
  degauss=0.01,    
/
&electrons
  diagonalization='david',
  conv_thr=1.0d-8,
/
ATOMIC_SPECIES
  Ni  58.6934  Ni.pbe-spn-rrkjus_psl.1.0.0.UPF
ATOMIC_POSITIONS {angstrom}
  Ni 0.00 0.00 0.00 
K_POINTS {automatic}
  3 3 3 0 0 0
