
&control
  calculation='scf',
  prefix='K',
  tstress = .true.,
  tprnfor = .true.,
  outdir='./out_K',
  pseudo_dir='/home/lorenzo/pseudos/K',
/
&system
  ibrav=3, !Es BCC
  celldm(1)=9.86,
  nat=1, 
  ntyp=1,
  ecutwfc=20,
  occupations='smearing', 
  smearing='gaussian',  
  degauss=0.01,    
/
&electrons
  diagonalization='david',
  conv_thr=1.0d-8,
/
ATOMIC_SPECIES
  K  39.0983  K.pbe-spn-rrkjus_psl.1.0.0.UPF
ATOMIC_POSITIONS {angstrom}
  K 0.00 0.00 0.00 
K_POINTS {automatic}
  11 11 11 0 0 0
