
&control
  calculation='scf',
  prefix='Ag',
  tstress = .true.,
  tprnfor = .true.,
  outdir='./out_Ag',
  pseudo_dir='/home/lorenzo/pseudos/Ag',
/
&system
  ibrav=2,
  celldm(1)=7.72,
  nat=1, 
  ntyp=1,
  ecutwfc=40,
  occupations='smearing', 
  smearing='gaussian',  
  degauss=0.01,    
/
&electrons
  diagonalization='david',
  conv_thr=1.0d-8,
/
ATOMIC_SPECIES
  Ag  107.8682  Ag.pbesol-n-kjpaw_psl.1.0.0.UPF
ATOMIC_POSITIONS {angstrom}
  Ag 0.00 0.00 0.00 
K_POINTS {automatic}
  9 9 9 0 0 0
